Route #1: 50 29 53 78 28 92 57 100 9 88 82 21 52
Route #2: 107 4 35 99 49 109 18 93
Route #3: 106 73 87 79 47 3 42 59 95
Route #4: 10 101 20 94 62 54 111 63 98 34 26 64 46 13
Route #5: 7 1 90 39 67 40
Route #6: 8 14 68 43 74 24 102 72 69 31 56 36 70
Route #7: 11 81 45 113 58 77 38 97 33 61 103
Route #8: 15 12 80 55 76 71 37 85 84 83 75 114 30 44 27 105 112 110
Route #9: 32 17 66 108 19 51 25 23 65 2 91 41 104 16 89
Route #10: 5 48 6 60 86
Route #11: 22 96
Cost 17470
